n_res = 4;
rc = [ 15, 17, 17, 23 ];
n_tasks = 15;
d = [ 4, 2, 6, 9, 100, 150, 50, 50, 200, 225, 175, 7, 9, 9, 10 ];
rr = [| 0, 0, 0, 0, 0, 0, 0, 0, 0, 9, 0, 4, 9, 0, 6
      | 0, 0, 0, 7, 10, 0, 0, 0, 0, 0, 0, 0, 0, 2, 0
      | 0, 2, 0, 0, 0, 8, 4, 3, 0, 0, 0, 0, 0, 0, 0
      | 2, 0, 3, 0, 0, 0, 0, 0, 7, 0, 7, 0, 0, 0, 0 |];
suc = [ { 8, 10 },
       { 6 },
       { 4, 5, 6 },
       { 7, 9, 15 },
       { 12, 14 },
       { 12 },
       {  },
       { 9, 15 },
       { 11, 13 },
       { 15 },
       { 14 },
       {  },
       {  },
       {  },
       {  } ];
